\ENCODING=ISO-8859-1
\Problem name: IloCplex

Minimize
 obj1: lambda_0 + lambda_1 + lambda_2 + lambda_3 + lambda_4 + lambda_5
       + lambda_6 + lambda_7 + lambda_8 + lambda_9 + lambda_10 + lambda_11
       + lambda_12 + lambda_13 + lambda_14 + lambda_15 + lambda_16 + lambda_17
       + lambda_18 + lambda_19 + lambda_20 + lambda_21 + lambda_22 + lambda_23
       + lambda_24 + lambda_25 + lambda_26 + lambda_27 + lambda_28 + lambda_29
       + lambda_30 + lambda_31 + lambda_32 + lambda_33 + lambda_34 + lambda_35
       + lambda_36 + lambda_37 + lambda_38 + lambda_39 + lambda_40 + lambda_41
       + lambda_42 + lambda_43 + lambda_44 + lambda_45 + lambda_46 + lambda_47
       + lambda_48 + lambda_49
Subject To
 c1:  lambda_0  = 1
 c2:  lambda_1  = 1
 c3:  lambda_2  = 1
 c4:  lambda_3  = 1
 c5:  lambda_4  = 1
 c6:  lambda_5  = 1
 c7:  lambda_6  = 1
 c8:  lambda_7  = 1
 c9:  lambda_8  = 1
 c10: lambda_9  = 1
 c11: lambda_10  = 1
 c12: lambda_11  = 1
 c13: lambda_12  = 1
 c14: lambda_13  = 1
 c15: lambda_14  = 1
 c16: lambda_15  = 1
 c17: lambda_16  = 1
 c18: lambda_17  = 1
 c19: lambda_18  = 1
 c20: lambda_19  = 1
 c21: lambda_20  = 1
 c22: lambda_21  = 1
 c23: lambda_22  = 1
 c24: lambda_23  = 1
 c25: lambda_24  = 1
 c26: lambda_25  = 1
 c27: lambda_26  = 1
 c28: lambda_27  = 1
 c29: lambda_28  = 1
 c30: lambda_29  = 1
 c31: lambda_30  = 1
 c32: lambda_31  = 1
 c33: lambda_32  = 1
 c34: lambda_33  = 1
 c35: lambda_34  = 1
 c36: lambda_35  = 1
 c37: lambda_36  = 1
 c38: lambda_37  = 1
 c39: lambda_38  = 1
 c40: lambda_39  = 1
 c41: lambda_40  = 1
 c42: lambda_41  = 1
 c43: lambda_42  = 1
 c44: lambda_43  = 1
 c45: lambda_44  = 1
 c46: lambda_45  = 1
 c47: lambda_46  = 1
 c48: lambda_47  = 1
 c49: lambda_48  = 1
 c50: lambda_49  = 1
End
